75
1 0 7
2 1 4
4 3 5
5 2 10
6 2 9
6 4 8
7 0 8
7 1 8
7 4 10
8 0 3
8 3 3
8 6 2
8 7 9
9 0 6
9 1 1
9 3 2
9 8 4
10 2 7
10 3 6
10 4 2
10 5 10
10 6 1
10 8 10
10 9 7
11 4 6
11 5 8
11 7 10
11 9 4
12 0 10
12 2 8
12 3 1
12 7 3
12 10 3
12 11 5
13 0 1
13 1 1
13 2 2
13 4 3
13 9 2
14 2 3
14 5 4
14 9 4
14 10 5
14 11 3
14 12 8
15 0 9
15 1 7
15 2 2
15 3 1
15 4 9
15 6 10
15 7 8
15 8 8
16 0 3
16 1 1
16 5 9
16 6 3
16 7 10
16 11 5
16 14 6
16 15 6
17 0 8
17 2 8
17 4 10
17 6 3
17 7 2
17 9 3
17 10 2
17 13 6
17 16 2
18 1 10
18 4 7
18 5 7
18 7 7
18 9 7
18 11 1
18 13 6
18 14 2
18 15 2
18 16 6
19 0 8
19 3 4
19 4 10
19 5 4
19 6 4
19 9 4
19 10 6
19 14 8
19 15 7
19 16 7
19 17 9
19 18 8
20 1 10
20 2 8
20 3 5
20 4 9
20 7 7
20 9 6
20 11 8
20 12 3
20 14 1
20 16 3
21 0 6
21 1 10
21 2 7
21 3 4
21 8 2
21 14 4
21 18 5
21 19 7
22 0 3
22 2 3
22 3 3
22 4 5
22 6 1
22 8 7
22 10 6
22 11 8
22 12 8
22 16 7
22 20 5
23 0 4
23 4 6
23 5 3
23 9 1
23 10 7
23 14 10
23 16 6
23 17 4
23 19 10
23 20 10
23 21 3
23 22 2
24 2 8
24 3 2
24 4 2
24 10 3
24 11 8
24 12 6
24 13 5
24 14 4
24 15 5
24 16 2
24 17 10
24 19 1
24 20 2
25 3 4
25 4 6
25 5 8
25 6 2
25 7 4
25 11 10
25 13 8
25 14 8
25 17 3
25 18 4
25 19 4
25 21 4
25 24 10
26 4 5
26 5 5
26 12 5
26 16 2
26 17 3
26 18 4
26 24 9
26 25 9
27 0 7
27 6 1
27 7 10
27 9 3
27 10 3
27 11 5
27 13 10
27 15 2
27 20 10
27 22 5
27 23 7
28 1 9
28 2 3
28 3 10
28 4 10
28 5 1
28 6 9
28 7 9
28 9 10
28 10 6
28 13 9
28 14 8
28 20 7
28 22 7
28 24 8
28 25 3
28 27 9
29 0 10
29 3 7
29 6 2
29 12 1
29 13 7
29 14 2
29 15 9
29 16 5
29 18 4
29 19 8
29 20 2
29 23 6
29 25 3
29 26 9
29 28 8
30 1 2
30 2 4
30 6 5
30 7 4
30 8 1
30 9 4
30 10 6
30 11 9
30 12 4
30 13 4
30 16 7
30 19 5
30 20 9
30 28 6
31 1 5
31 2 7
31 3 3
31 4 5
31 6 7
31 7 3
31 9 1
31 11 1
31 14 3
31 16 5
31 18 2
31 20 6
31 22 2
31 23 4
31 24 4
31 30 4
32 1 8
32 3 5
32 4 3
32 5 7
32 6 7
32 7 6
32 8 8
32 9 7
32 11 5
32 13 7
32 16 3
32 19 8
32 20 7
32 22 8
32 23 8
32 27 9
32 30 7
32 31 5
33 0 3
33 2 9
33 3 9
33 5 4
33 7 5
33 10 6
33 11 6
33 14 1
33 15 8
33 17 1
33 18 5
33 20 6
33 22 6
33 25 7
33 26 1
33 29 8
33 30 4
33 31 9
34 0 10
34 1 1
34 3 3
34 4 3
34 5 7
34 6 2
34 7 1
34 8 3
34 10 6
34 11 9
34 14 3
34 17 6
34 18 6
34 20 4
34 22 9
34 28 1
34 30 9
34 31 5
34 32 9
34 33 3
35 0 10
35 1 3
35 5 7
35 9 3
35 10 8
35 12 4
35 13 2
35 14 1
35 15 1
35 16 6
35 17 7
35 18 9
35 19 6
35 21 2
35 24 5
35 27 7
35 28 9
35 29 3
36 0 3
36 1 5
36 4 5
36 5 7
36 10 7
36 14 2
36 15 3
36 16 4
36 19 4
36 23 1
36 26 8
36 27 1
36 28 4
36 30 5
36 31 8
36 35 9
37 1 6
37 3 6
37 6 10
37 7 2
37 8 9
37 9 10
37 10 10
37 17 10
37 18 6
37 19 2
37 26 10
37 27 10
37 28 4
37 30 4
37 31 3
37 32 7
37 34 3
37 35 6
38 1 5
38 2 8
38 6 3
38 7 5
38 8 4
38 9 9
38 11 8
38 16 3
38 17 1
38 18 2
38 19 9
38 20 4
38 25 7
38 28 4
38 29 9
38 30 1
38 32 7
38 34 3
38 36 9
38 37 8
39 1 8
39 2 5
39 3 9
39 7 3
39 14 5
39 16 3
39 18 4
39 19 6
39 20 6
39 21 6
39 22 4
39 30 9
39 32 2
39 34 4
39 36 2
40 0 1
40 2 10
40 3 5
40 5 8
40 6 3
40 7 1
40 9 5
40 10 8
40 13 10
40 14 8
40 15 6
40 16 7
40 17 8
40 18 8
40 20 5
40 25 8
40 26 1
40 28 10
40 30 9
40 32 2
40 33 7
40 35 8
40 37 1
40 38 8
41 0 5
41 2 10
41 3 1
41 7 5
41 8 4
41 10 3
41 12 5
41 13 5
41 14 4
41 15 3
41 16 4
41 19 10
41 21 9
41 25 1
41 30 1
41 31 9
41 33 7
41 34 3
41 36 2
41 38 7
41 39 3
41 40 3
42 0 5
42 1 3
42 2 2
42 3 7
42 6 6
42 7 7
42 8 2
42 10 3
42 13 10
42 14 2
42 17 8
42 18 7
42 21 2
42 23 8
42 24 4
42 25 9
42 27 6
42 28 9
42 30 10
42 32 10
42 33 8
42 36 8
42 37 8
42 39 3
42 40 9
42 41 8
43 0 3
43 2 8
43 3 2
43 4 7
43 5 5
43 8 6
43 12 8
43 14 9
43 15 9
43 16 4
43 17 7
43 21 8
43 24 4
43 26 2
43 27 1
43 32 9
43 33 8
43 34 5
43 35 10
43 38 7
43 39 1
44 0 3
44 2 6
44 3 5
44 4 3
44 6 6
44 9 2
44 11 7
44 13 4
44 16 3
44 17 4
44 19 5
44 21 5
44 24 8
44 25 1
44 27 10
44 28 5
44 30 8
44 31 1
44 33 2
44 34 7
44 38 9
44 41 8
44 42 9
45 0 8
45 1 4
45 2 1
45 3 10
45 4 4
45 9 1
45 11 10
45 12 2
45 14 9
45 15 5
45 16 8
45 17 6
45 18 3
45 19 8
45 22 6
45 23 9
45 24 7
45 26 5
45 27 5
45 31 10
45 32 10
45 33 8
45 36 3
45 41 4
45 43 7
46 0 6
46 2 1
46 3 1
46 5 4
46 6 4
46 8 7
46 10 2
46 11 9
46 12 4
46 18 9
46 19 3
46 20 1
46 22 5
46 23 3
46 24 10
46 28 8
46 29 1
46 30 4
46 34 2
46 40 3
46 41 7
46 43 8
46 44 9
46 45 5
47 0 10
47 1 4
47 2 10
47 5 2
47 13 10
47 15 10
47 16 1
47 19 7
47 20 3
47 23 4
47 31 8
47 33 7
47 34 2
47 35 1
47 36 4
47 37 6
47 38 3
47 39 9
47 41 1
47 43 1
47 44 9
47 45 1
47 46 2
48 0 5
48 1 10
48 7 1
48 13 4
48 15 8
48 21 3
48 25 9
48 26 10
48 28 5
48 35 7
48 36 6
48 37 2
48 38 2
48 39 2
48 42 3
48 44 10
48 46 4
49 0 3
49 1 7
49 4 8
49 5 7
49 7 3
49 8 4
49 14 5
49 24 6
49 25 2
49 26 10
49 27 9
49 28 9
49 29 5
49 31 8
49 38 5
49 42 2
49 43 1
49 44 7
49 45 6
49 46 7
49 47 10
50 1 1
50 2 8
50 3 4
50 5 8
50 7 3
50 8 7
50 9 2
50 11 10
50 12 9
50 13 5
50 15 1
50 17 7
50 19 7
50 23 1
50 24 5
50 25 3
50 26 2
50 28 6
50 29 10
50 31 7
50 32 4
50 33 6
50 36 3
50 37 9
50 38 9
50 40 7
50 44 6
50 46 9
50 47 6
50 48 2
51 0 9
51 3 9
51 4 7
51 5 7
51 7 3
51 10 7
51 13 3
51 16 5
51 17 5
51 19 5
51 20 4
51 21 5
51 24 10
51 25 6
51 26 1
51 27 1
51 31 4
51 32 3
51 41 6
51 42 1
51 44 1
51 45 5
51 46 7
51 48 2
52 0 7
52 3 4
52 4 8
52 5 7
52 6 7
52 11 7
52 12 5
52 15 8
52 16 4
52 17 1
52 21 5
52 22 4
52 23 8
52 25 10
52 28 6
52 30 4
52 34 6
52 35 10
52 37 3
52 39 8
52 42 8
52 44 6
52 45 10
52 46 4
52 47 5
53 2 5
53 4 4
53 5 1
53 7 4
53 8 10
53 11 3
53 14 7
53 15 5
53 19 8
53 20 2
53 21 5
53 22 8
53 29 6
53 31 10
53 36 8
53 39 9
53 40 4
53 43 7
53 45 7
53 47 2
53 49 4
53 51 2
54 0 3
54 4 6
54 5 10
54 6 5
54 8 9
54 9 8
54 10 6
54 11 10
54 13 10
54 16 9
54 18 5
54 19 6
54 22 8
54 23 3
54 24 3
54 25 3
54 30 4
54 32 8
54 33 8
54 34 2
54 35 7
54 42 6
54 43 6
54 46 6
54 50 9
54 51 3
54 53 8
55 0 9
55 3 7
55 4 1
55 5 5
55 6 1
55 7 7
55 8 7
55 9 2
55 10 8
55 12 9
55 14 5
55 19 9
55 20 4
55 23 5
55 25 6
55 27 7
55 29 9
55 31 9
55 33 2
55 34 1
55 35 3
55 37 8
55 38 1
55 42 4
55 43 7
55 45 1
55 46 10
55 47 7
55 49 6
55 52 4
55 53 8
55 54 2
56 0 2
56 1 9
56 3 6
56 4 2
56 5 3
56 9 4
56 10 3
56 11 1
56 15 9
56 16 2
56 17 8
56 18 10
56 20 3
56 22 8
56 24 8
56 27 9
56 31 1
56 34 10
56 35 6
56 36 9
56 37 5
56 38 4
56 40 1
56 42 8
56 43 7
56 44 8
56 45 2
56 48 9
56 49 1
56 50 8
56 54 2
57 1 4
57 2 7
57 4 3
57 5 10
57 10 8
57 11 5
57 12 4
57 14 6
57 15 10
57 17 4
57 19 7
57 21 5
57 25 10
57 26 2
57 27 4
57 30 10
57 31 8
57 32 2
57 33 5
57 36 1
57 38 2
57 39 7
57 40 1
57 45 3
57 46 1
57 47 9
57 49 5
57 50 8
57 51 6
57 54 2
57 55 3
57 56 6
58 0 2
58 2 1
58 3 3
58 4 9
58 5 5
58 8 1
58 9 8
58 10 5
58 12 1
58 13 7
58 14 6
58 17 6
58 18 6
58 21 7
58 22 3
58 26 5
58 27 3
58 28 8
58 30 10
58 31 9
58 33 8
58 34 5
58 35 10
58 37 6
58 38 10
58 39 2
58 41 10
58 42 10
58 44 6
58 45 8
58 48 9
58 51 5
58 54 6
58 57 1
59 0 4
59 1 4
59 3 8
59 6 2
59 10 10
59 11 4
59 12 1
59 15 4
59 19 8
59 20 7
59 24 9
59 25 8
59 26 7
59 27 9
59 28 7
59 32 5
59 33 4
59 37 10
59 38 6
59 39 6
59 41 5
59 43 6
59 44 8
59 46 4
59 47 1
59 51 4
59 54 9
59 55 8
59 56 10
59 57 1
59 58 4
60 1 9
60 2 10
60 3 2
60 4 1
60 5 1
60 6 7
60 7 10
60 8 3
60 9 3
60 11 8
60 12 8
60 13 5
60 14 7
60 17 1
60 18 9
60 19 7
60 20 7
60 21 9
60 22 1
60 25 2
60 28 1
60 30 8
60 32 9
60 34 1
60 35 5
60 39 2
60 40 6
60 41 2
60 43 8
60 46 3
60 47 10
60 48 10
60 55 2
61 0 9
61 2 5
61 3 6
61 7 5
61 8 9
61 11 9
61 12 5
61 13 5
61 16 3
61 18 5
61 20 10
61 24 2
61 25 5
61 27 2
61 30 6
61 31 8
61 33 1
61 35 5
61 37 4
61 39 9
61 40 3
61 41 10
61 43 6
61 46 3
61 47 2
61 48 8
61 52 5
61 53 10
61 57 2
61 58 8
62 0 3
62 3 6
62 7 2
62 10 9
62 12 8
62 14 5
62 16 8
62 19 9
62 24 5
62 27 5
62 28 6
62 29 9
62 31 8
62 35 10
62 39 10
62 41 2
62 42 2
62 43 5
62 45 6
62 46 3
62 50 10
62 53 2
62 55 10
62 59 7
62 60 5
62 61 4
63 2 7
63 4 4
63 5 6
63 8 5
63 9 3
63 10 5
63 11 9
63 13 3
63 15 8
63 18 6
63 20 2
63 21 8
63 24 2
63 26 7
63 29 5
63 31 2
63 32 1
63 33 10
63 37 9
63 38 7
63 40 4
63 41 9
63 44 6
63 46 7
63 47 7
63 53 8
63 54 6
63 55 10
63 56 8
63 57 8
63 58 9
63 59 3
63 60 10
63 61 5
64 0 2
64 1 4
64 8 3
64 11 1
64 12 3
64 13 10
64 14 4
64 16 10
64 17 5
64 18 8
64 21 10
64 23 7
64 25 3
64 29 8
64 30 1
64 33 5
64 35 8
64 36 5
64 38 8
64 39 8
64 42 10
64 44 1
64 47 6
64 48 8
64 52 3
64 55 9
64 57 2
64 58 10
64 59 2
64 60 8
64 61 4
64 62 7
65 5 9
65 6 3
65 8 9
65 9 10
65 10 8
65 16 8
65 18 7
65 19 2
65 21 7
65 23 6
65 25 2
65 28 6
65 31 10
65 33 4
65 34 4
65 35 4
65 36 7
65 37 5
65 38 8
65 40 7
65 41 1
65 42 6
65 48 5
65 51 10
65 52 4
65 53 1
65 54 4
65 55 5
65 56 6
65 60 6
65 61 7
65 64 9
66 0 6
66 1 9
66 2 7
66 4 10
66 7 2
66 10 4
66 12 3
66 16 5
66 20 6
66 21 7
66 24 2
66 25 6
66 29 10
66 32 5
66 33 5
66 35 5
66 40 2
66 41 5
66 43 8
66 47 3
66 49 3
66 51 10
66 54 3
66 55 3
66 56 6
66 57 8
66 58 5
66 59 9
66 60 8
66 63 5
66 64 3
66 65 10
67 0 3
67 1 9
67 2 8
67 3 9
67 8 4
67 10 6
67 11 2
67 12 8
67 18 8
67 22 2
67 23 6
67 24 10
67 27 8
67 28 9
67 29 5
67 30 4
67 33 10
67 35 4
67 36 1
67 40 8
67 41 2
67 42 2
67 44 4
67 45 9
67 46 5
67 47 2
67 49 10
67 51 1
67 57 7
67 60 10
67 65 5
68 0 6
68 1 7
68 2 3
68 3 7
68 4 10
68 6 7
68 7 3
68 12 8
68 14 3
68 16 6
68 22 5
68 23 2
68 26 6
68 30 5
68 31 2
68 33 3
68 34 6
68 35 4
68 36 4
68 37 7
68 39 4
68 41 1
68 45 7
68 47 8
68 49 1
68 53 7
68 54 5
68 55 1
68 56 5
68 58 7
68 60 5
68 61 4
68 62 2
68 63 3
68 66 3
68 67 5
69 0 4
69 1 1
69 2 9
69 4 9
69 5 2
69 6 5
69 7 3
69 10 10
69 11 10
69 12 7
69 19 8
69 20 6
69 21 8
69 22 7
69 23 8
69 29 9
69 32 5
69 33 3
69 36 3
69 38 10
69 42 6
69 45 4
69 46 5
69 47 1
69 48 4
69 51 6
69 53 9
69 55 8
69 58 9
69 62 3
69 64 3
69 65 7
69 67 2
70 0 3
70 8 4
70 9 1
70 11 5
70 12 2
70 15 6
70 17 1
70 19 5
70 23 10
70 24 2
70 26 5
70 28 4
70 32 5
70 34 5
70 35 4
70 36 4
70 41 7
70 42 3
70 46 10
70 47 4
70 49 6
70 50 5
70 51 8
70 52 6
70 54 9
70 56 5
70 61 8
70 64 10
70 67 5
70 68 1
71 0 1
71 1 4
71 2 10
71 5 3
71 6 5
71 7 9
71 10 9
71 16 10
71 17 5
71 20 2
71 21 8
71 22 8
71 24 2
71 25 5
71 29 8
71 30 8
71 32 5
71 33 8
71 36 1
71 41 2
71 42 3
71 45 9
71 46 7
71 50 6
71 52 9
71 56 7
71 57 8
71 59 2
71 61 1
71 62 6
71 64 10
71 65 8
71 66 7
71 68 6
72 2 3
72 4 2
72 9 9
72 12 3
72 13 10
72 19 8
72 20 1
72 21 7
72 23 6
72 24 5
72 26 4
72 27 2
72 28 6
72 29 5
72 30 4
72 34 1
72 36 4
72 37 10
72 38 5
72 39 10
72 40 2
72 43 2
72 44 8
72 46 8
72 47 5
72 48 1
72 49 10
72 53 9
72 55 1
72 56 3
72 57 3
72 59 4
72 60 8
72 62 7
72 63 9
72 65 2
72 67 7
72 68 6
72 71 6
73 0 2
73 1 7
73 2 6
73 4 2
73 5 8
73 8 4
73 9 1
73 11 2
73 12 8
73 14 2
73 18 4
73 19 10
73 21 5
73 24 8
73 26 8
73 27 6
73 28 9
73 30 10
73 33 9
73 36 9
73 38 8
73 39 3
73 40 3
73 44 5
73 47 2
73 51 2
73 52 4
73 53 7
73 54 10
73 57 9
73 59 8
73 61 6
73 62 2
73 64 2
73 68 5
73 71 10
74 0 10
74 1 3
74 6 3
74 7 10
74 9 7
74 10 6
74 11 3
74 13 8
74 15 10
74 16 7
74 17 6
74 22 2
74 23 9
74 24 9
74 28 3
74 31 6
74 33 5
74 35 9
74 37 3
74 41 8
74 44 7
74 45 3
74 46 6
74 50 1
74 52 6
74 54 8
74 55 3
74 56 4
74 57 2
74 60 7
74 62 9
74 64 1
74 68 5
74 70 6
74 71 3
74 73 6
